c This is a random SAT instance with 10 variables and 20 clauses
p cnf 10 20
-5 -7 -1 -10 3 1 10 -4 -9 0
2 -2 6 5 -10 -1 9 -3 0
7 -3 -10 -4 8 9 0
-6 4 -5 -2 0
-1 8 -10 -2 2 -5 -8 1 -6 0
10 7 -8 -7 2 -1 0
2 -3 4 3 1 6 -7 0
-8 10 -5 1 -3 6 -4 -7 0
9 0
10 -10 0
-5 -1 5 -6 -8 0
-8 -5 -1 0
1 0
2 -7 -4 9 0
-3 0
5 -3 9 0
-1 -9 7 9 -8 -2 6 2 1 0
10 6 -6 -10 -3 -4 -9 0
-9 -7 8 6 0
1 -7 2 -5 -6 -1 -8 -10 0